p cnf 471 1088
c ind 56 215 73 251 112 333 422 376 224 12 75 23 59 26 468 450 138 46 448 78 438 258 436 252 1 22 154 454 299 40 5 444 337 460 28 148 36 7 25 93 18 147 16 19 44 61 412 212 101 17 214 80 462 48 15 413 30 419 6 164 470 90 4 13 456 410 11 108 382 156 2 10 124 261 20 81 187 9 346 466 249 24 8 14 464 32 54 434 173 385 310 321 34 42 317 458 442 160 291 452 21 38 375 440 221 373 47 3 65 446 0
-28 27 0
-27 -30 0
-27 29 0
-30 29 0
-29 -32 0
-29 31 0
-32 31 0
-31 -34 0
-31 33 0
-34 33 0
-33 -36 0
-33 35 0
-36 35 0
-35 -38 0
-35 37 0
-38 37 0
-37 -40 0
-37 39 0
-40 39 0
-39 -42 0
-39 41 0
-42 41 0
-41 -44 0
-41 43 0
-44 43 0
28 30 32 34 36 38 40 42 44 0
-45 -30 0
45 30 0
-48 5 0
-49 46 0
-49 47 0
-49 48 0
-46 -47 -48 49 0
-50 51 0
-52 50 0
-53 -49 50 0
53 49 0
53 -50 0
-54 6 0
-54 -48 0
-55 46 0
-55 54 0
-46 -54 55 0
-57 56 0
-57 48 0
-56 -48 57 0
-58 55 57 0
58 -55 0
58 -57 0
-59 4 0
-60 59 0
-60 54 0
-59 -54 60 0
-47 61 0
-62 61 0
-62 48 0
-61 -48 62 0
-63 60 62 0
63 -60 0
63 -62 0
-64 58 0
-64 63 0
-58 -63 64 0
-65 1 0
-66 65 0
-66 54 0
-65 -54 66 0
-67 68 0
-69 67 0
-70 67 0
-70 48 0
-67 -48 70 0
-71 66 70 0
71 -66 0
71 -70 0
-72 -64 71 0
72 64 0
72 -71 0
-73 46 0
-73 -59 0
-74 73 0
-74 54 0
-73 -54 74 0
-75 56 0
-76 75 0
-76 48 0
-75 -48 76 0
-77 74 76 0
77 -74 0
77 -76 0
-78 6 0
-78 54 0
-78 -5 0
-78 -48 0
-79 59 0
-79 78 0
-59 -78 79 0
-5 81 0
-48 81 0
-81 -78 0
-82 80 0
-82 81 0
-80 -81 82 0
-83 79 82 0
83 -79 0
83 -82 0
-84 77 0
-84 83 0
-77 -83 84 0
-85 86 0
-87 85 0
-88 -84 85 0
88 84 0
88 -85 0
-89 73 0
-89 78 0
-73 -78 89 0
-91 90 0
-91 81 0
-90 -81 91 0
-92 89 91 0
92 -89 0
92 -91 0
-94 93 0
-94 78 0
-93 -78 94 0
-95 96 0
-97 95 0
-98 95 0
-98 81 0
-95 -81 98 0
-99 94 98 0
99 -94 0
99 -98 0
-100 -92 99 0
100 92 0
100 -99 0
-102 46 0
-102 101 0
-102 48 0
-46 -101 -48 102 0
-104 103 0
-103 105 0
-106 -102 103 0
106 102 0
106 -103 0
-107 46 0
-107 54 0
-46 -54 107 0
-109 108 0
-109 48 0
-108 -48 109 0
-110 107 109 0
110 -107 0
110 -109 0
-111 59 0
-111 54 0
-59 -54 111 0
-101 112 0
-113 112 0
-113 48 0
-112 -48 113 0
-114 111 113 0
114 -111 0
114 -113 0
-115 110 0
-115 114 0
-110 -114 115 0
-116 65 0
-116 54 0
-65 -54 116 0
-118 117 0
-117 119 0
-120 117 0
-120 48 0
-117 -48 120 0
-121 116 120 0
121 -116 0
121 -120 0
-122 -115 121 0
122 115 0
122 -121 0
-123 73 0
-123 54 0
-73 -54 123 0
-124 108 0
-125 124 0
-125 48 0
-124 -48 125 0
-126 123 125 0
126 -123 0
126 -125 0
-127 59 0
-127 54 0
-59 -54 127 0
-128 112 0
-128 48 0
-112 -48 128 0
-129 127 128 0
129 -127 0
129 -128 0
-130 126 0
-130 129 0
-126 -129 130 0
-132 131 0
-131 133 0
-134 -130 131 0
134 130 0
134 -131 0
-135 73 0
-135 54 0
-73 -54 135 0
-136 124 0
-136 48 0
-124 -48 136 0
-137 135 136 0
137 -135 0
137 -136 0
-138 1 0
-65 138 0
-139 138 0
-139 54 0
-138 -54 139 0
-141 140 0
-140 142 0
-143 140 0
-143 48 0
-140 -48 143 0
-144 139 143 0
144 -139 0
144 -143 0
-145 -137 144 0
145 137 0
145 -144 0
-146 34 0
-146 106 0
-146 122 0
-146 134 0
-146 145 0
-34 -106 -122 -134 -145 146 0
-148 6 0
-148 54 0
-78 148 0
-148 -48 0
-149 46 0
-149 147 0
-149 148 0
-46 -147 -148 149 0
-151 150 0
-150 152 0
-153 -149 150 0
153 149 0
153 -150 0
-154 5 0
-48 154 0
-154 81 0
-154 -78 0
-154 -148 0
-155 46 0
-155 154 0
-46 -154 155 0
-157 156 0
-157 148 0
-156 -148 157 0
-158 155 157 0
158 -155 0
158 -157 0
-159 59 0
-159 154 0
-59 -154 159 0
-147 160 0
-161 160 0
-161 148 0
-160 -148 161 0
-162 159 161 0
162 -159 0
162 -161 0
-163 158 0
-163 162 0
-158 -162 163 0
-164 2 0
-164 -65 0
-164 -138 0
-165 164 0
-165 154 0
-164 -154 165 0
-167 166 0
-166 168 0
-169 166 0
-169 148 0
-166 -148 169 0
-170 165 169 0
170 -165 0
170 -169 0
-171 -163 170 0
171 163 0
171 -170 0
-172 73 0
-172 154 0
-73 -154 172 0
-173 156 0
-174 173 0
-174 148 0
-173 -148 174 0
-175 172 174 0
175 -172 0
175 -174 0
-176 59 0
-176 154 0
-59 -154 176 0
-177 160 0
-177 148 0
-160 -148 177 0
-178 176 177 0
178 -176 0
178 -177 0
-179 175 0
-179 178 0
-175 -178 179 0
-181 180 0
-180 182 0
-183 -179 180 0
183 179 0
183 -180 0
-184 73 0
-184 154 0
-73 -154 184 0
-185 173 0
-185 148 0
-173 -148 185 0
-186 184 185 0
186 -184 0
186 -185 0
-187 2 0
-164 187 0
-187 -65 0
-187 -138 0
-188 187 0
-188 154 0
-187 -154 188 0
-190 189 0
-189 191 0
-192 189 0
-192 148 0
-189 -148 192 0
-193 188 192 0
193 -188 0
193 -192 0
-194 -186 193 0
194 186 0
194 -193 0
-195 36 0
-195 153 0
-195 171 0
-195 183 0
-195 194 0
-36 -153 -171 -183 -194 195 0
-196 46 0
-196 101 0
-196 48 0
-46 -101 -48 196 0
-197 -196 103 0
197 196 0
197 -103 0
-198 46 0
-198 54 0
-46 -54 198 0
-199 108 0
-199 48 0
-108 -48 199 0
-200 198 199 0
200 -198 0
200 -199 0
-201 59 0
-201 54 0
-59 -54 201 0
-202 112 0
-202 48 0
-112 -48 202 0
-203 201 202 0
203 -201 0
203 -202 0
-204 200 0
-204 203 0
-200 -203 204 0
-205 65 0
-205 54 0
-65 -54 205 0
-206 117 0
-206 48 0
-117 -48 206 0
-207 205 206 0
207 -205 0
207 -206 0
-208 -204 207 0
208 204 0
208 -207 0
-209 73 0
-209 54 0
-73 -54 209 0
-210 124 0
-210 48 0
-124 -48 210 0
-211 209 210 0
211 -209 0
211 -210 0
-212 6 0
-212 54 0
-78 212 0
-212 148 0
-212 -48 0
-212 -154 0
-213 59 0
-213 212 0
-59 -212 213 0
-215 5 0
-48 215 0
-215 81 0
-154 215 0
-215 -78 0
-215 -212 0
-216 214 0
-216 215 0
-214 -215 216 0
-217 213 216 0
217 -213 0
217 -216 0
-218 211 0
-218 217 0
-211 -217 218 0
-219 -218 131 0
219 218 0
219 -131 0
-220 73 0
-220 212 0
-73 -212 220 0
-222 221 0
-222 215 0
-221 -215 222 0
-223 220 222 0
223 -220 0
223 -222 0
-225 224 0
-225 212 0
-224 -212 225 0
-227 226 0
-226 228 0
-229 226 0
-229 215 0
-226 -215 229 0
-230 225 229 0
230 -225 0
230 -229 0
-231 -223 230 0
231 223 0
231 -230 0
-232 197 0
-232 208 0
-232 219 0
-232 231 0
-232 32 0
-197 -208 -219 -231 -32 232 0
-233 46 0
-233 147 0
-233 148 0
-46 -147 -148 233 0
-234 -233 150 0
234 233 0
234 -150 0
-235 46 0
-235 154 0
-46 -154 235 0
-236 156 0
-236 148 0
-156 -148 236 0
-237 235 236 0
237 -235 0
237 -236 0
-238 59 0
-238 154 0
-59 -154 238 0
-239 160 0
-239 148 0
-160 -148 239 0
-240 238 239 0
240 -238 0
240 -239 0
-241 237 0
-241 240 0
-237 -240 241 0
-242 164 0
-242 154 0
-164 -154 242 0
-243 166 0
-243 148 0
-166 -148 243 0
-244 242 243 0
244 -242 0
244 -243 0
-245 -241 244 0
245 241 0
245 -244 0
-246 73 0
-246 154 0
-73 -154 246 0
-247 173 0
-247 148 0
-173 -148 247 0
-248 246 247 0
248 -246 0
248 -247 0
-249 5 0
-249 48 0
-249 81 0
-249 154 0
-249 215 0
-249 -54 0
-249 -78 0
-249 -148 0
-249 -212 0
-250 59 0
-250 249 0
-59 -249 250 0
-252 6 0
-54 252 0
-78 252 0
-148 252 0
-212 252 0
-252 -249 0
-253 251 0
-253 252 0
-251 -252 253 0
-254 250 253 0
254 -250 0
254 -253 0
-255 248 0
-255 254 0
-248 -254 255 0
-256 -255 180 0
256 255 0
256 -180 0
-257 73 0
-257 249 0
-73 -249 257 0
-258 156 0
-258 173 0
-259 258 0
-259 252 0
-258 -252 259 0
-260 257 259 0
260 -257 0
260 -259 0
-262 261 0
-262 249 0
-261 -249 262 0
-264 263 0
-263 265 0
-266 263 0
-266 252 0
-263 -252 266 0
-267 262 266 0
267 -262 0
267 -266 0
-268 -260 267 0
268 260 0
268 -267 0
-269 234 0
-269 245 0
-269 256 0
-269 268 0
-269 28 0
-234 -245 -256 -268 -28 269 0
-270 46 0
-270 47 0
-270 48 0
-46 -47 -48 270 0
-271 50 0
-50 272 0
-273 -270 50 0
273 270 0
273 -50 0
-274 46 0
-274 54 0
-46 -54 274 0
-275 56 0
-275 48 0
-56 -48 275 0
-276 274 275 0
276 -274 0
276 -275 0
-277 59 0
-277 54 0
-59 -54 277 0
-278 61 0
-278 48 0
-61 -48 278 0
-279 277 278 0
279 -277 0
279 -278 0
-280 276 0
-280 279 0
-276 -279 280 0
-281 65 0
-281 54 0
-65 -54 281 0
-282 67 0
-67 283 0
-284 67 0
-284 48 0
-67 -48 284 0
-285 281 284 0
285 -281 0
285 -284 0
-286 -280 285 0
286 280 0
286 -285 0
-287 73 0
-287 54 0
-73 -54 287 0
-288 75 0
-288 48 0
-75 -48 288 0
-289 287 288 0
289 -287 0
289 -288 0
-290 59 0
-290 212 0
-59 -212 290 0
-292 291 0
-292 215 0
-291 -215 292 0
-293 290 292 0
293 -290 0
293 -292 0
-294 289 0
-294 293 0
-289 -293 294 0
-295 85 0
-85 296 0
-297 -294 85 0
297 294 0
297 -85 0
-298 73 0
-298 212 0
-73 -212 298 0
-300 299 0
-300 215 0
-299 -215 300 0
-301 298 300 0
301 -298 0
301 -300 0
-302 224 0
-302 212 0
-224 -212 302 0
-304 303 0
-303 305 0
-306 303 0
-306 215 0
-303 -215 306 0
-307 302 306 0
307 -302 0
307 -306 0
-308 -301 307 0
308 301 0
308 -307 0
-309 273 0
-309 286 0
-309 297 0
-309 308 0
-309 42 0
-273 -286 -297 -308 -42 309 0
-311 46 0
-311 310 0
-311 148 0
-46 -310 -148 311 0
-313 312 0
-312 314 0
-315 -311 312 0
315 311 0
315 -312 0
-316 46 0
-316 154 0
-46 -154 316 0
-318 317 0
-318 148 0
-317 -148 318 0
-319 316 318 0
319 -316 0
319 -318 0
-320 59 0
-320 154 0
-59 -154 320 0
-310 321 0
-322 321 0
-322 148 0
-321 -148 322 0
-323 320 322 0
323 -320 0
323 -322 0
-324 319 0
-324 323 0
-319 -323 324 0
-325 164 0
-325 154 0
-164 -154 325 0
-327 326 0
-326 328 0
-329 326 0
-329 148 0
-326 -148 329 0
-330 325 329 0
330 -325 0
330 -329 0
-331 -324 330 0
331 324 0
331 -330 0
-332 73 0
-332 154 0
-73 -154 332 0
-333 317 0
-334 333 0
-334 148 0
-333 -148 334 0
-335 332 334 0
335 -332 0
335 -334 0
-336 59 0
-336 249 0
-59 -249 336 0
-338 337 0
-338 252 0
-337 -252 338 0
-339 336 338 0
339 -336 0
339 -338 0
-340 335 0
-340 339 0
-335 -339 340 0
-342 341 0
-341 343 0
-344 -340 341 0
344 340 0
344 -341 0
-345 73 0
-345 249 0
-73 -249 345 0
-347 346 0
-347 252 0
-346 -252 347 0
-348 345 347 0
348 -345 0
348 -347 0
-349 261 0
-349 249 0
-261 -249 349 0
-351 350 0
-350 352 0
-353 350 0
-353 252 0
-350 -252 353 0
-354 349 353 0
354 -349 0
354 -353 0
-355 -348 354 0
355 348 0
355 -354 0
-356 315 0
-356 331 0
-356 344 0
-356 355 0
-356 40 0
-315 -331 -344 -355 -40 356 0
-357 46 0
-357 47 0
-357 48 0
-46 -47 -48 357 0
-358 -357 50 0
358 357 0
358 -50 0
-359 46 0
-359 54 0
-46 -54 359 0
-360 56 0
-360 48 0
-56 -48 360 0
-361 359 360 0
361 -359 0
361 -360 0
-362 59 0
-362 54 0
-59 -54 362 0
-363 61 0
-363 48 0
-61 -48 363 0
-364 362 363 0
364 -362 0
364 -363 0
-365 361 0
-365 364 0
-361 -364 365 0
-366 65 0
-366 54 0
-65 -54 366 0
-367 67 0
-367 48 0
-67 -48 367 0
-368 366 367 0
368 -366 0
368 -367 0
-369 -365 368 0
369 365 0
369 -368 0
-370 73 0
-370 54 0
-73 -54 370 0
-371 75 0
-371 48 0
-75 -48 371 0
-372 370 371 0
372 -370 0
372 -371 0
-373 6 0
-373 54 0
-78 373 0
-373 148 0
-373 212 0
-373 252 0
-373 -48 0
-373 -154 0
-373 -215 0
-373 -249 0
-374 59 0
-374 373 0
-59 -373 374 0
-291 375 0
-376 5 0
-48 376 0
-376 81 0
-154 376 0
-215 376 0
-249 376 0
-376 -78 0
-376 -373 0
-377 375 0
-377 376 0
-375 -376 377 0
-378 374 377 0
378 -374 0
378 -377 0
-379 372 0
-379 378 0
-372 -378 379 0
-380 -379 85 0
380 379 0
380 -85 0
-381 73 0
-381 373 0
-73 -373 381 0
-382 299 0
-383 382 0
-383 376 0
-382 -376 383 0
-384 381 383 0
384 -381 0
384 -383 0
-386 385 0
-386 373 0
-385 -373 386 0
-388 387 0
-387 389 0
-390 387 0
-390 376 0
-387 -376 390 0
-391 386 390 0
391 -386 0
391 -390 0
-392 -384 391 0
392 384 0
392 -391 0
-393 358 0
-393 369 0
-393 380 0
-393 392 0
-393 44 0
-358 -369 -380 -392 -44 393 0
-394 46 0
-394 310 0
-394 148 0
-46 -310 -148 394 0
-395 -394 312 0
395 394 0
395 -312 0
-396 46 0
-396 154 0
-46 -154 396 0
-397 317 0
-397 148 0
-317 -148 397 0
-398 396 397 0
398 -396 0
398 -397 0
-399 59 0
-399 154 0
-59 -154 399 0
-400 321 0
-400 148 0
-321 -148 400 0
-401 399 400 0
401 -399 0
401 -400 0
-402 398 0
-402 401 0
-398 -401 402 0
-403 164 0
-403 154 0
-164 -154 403 0
-404 326 0
-404 148 0
-326 -148 404 0
-405 403 404 0
405 -403 0
405 -404 0
-406 -402 405 0
406 402 0
406 -405 0
-407 73 0
-407 154 0
-73 -154 407 0
-408 333 0
-408 148 0
-333 -148 408 0
-409 407 408 0
409 -407 0
409 -408 0
-410 5 0
-410 48 0
-410 81 0
-410 154 0
-410 215 0
-410 249 0
-410 376 0
-410 -54 0
-410 -78 0
-410 -148 0
-410 -212 0
-410 -252 0
-410 -373 0
-411 59 0
-411 410 0
-59 -410 411 0
-337 412 0
-413 6 0
-54 413 0
-78 413 0
-148 413 0
-212 413 0
-252 413 0
-373 413 0
-413 -410 0
-414 412 0
-414 413 0
-412 -413 414 0
-415 411 414 0
415 -411 0
415 -414 0
-416 409 0
-416 415 0
-409 -415 416 0
-417 -416 341 0
417 416 0
417 -341 0
-418 73 0
-418 410 0
-73 -410 418 0
-419 346 0
-420 419 0
-420 413 0
-419 -413 420 0
-421 418 420 0
421 -418 0
421 -420 0
-423 422 0
-423 410 0
-422 -410 423 0
-425 424 0
-424 426 0
-427 424 0
-427 413 0
-424 -413 427 0
-428 423 427 0
428 -423 0
428 -427 0
-429 -421 428 0
429 421 0
429 -428 0
-430 395 0
-430 406 0
-430 417 0
-430 429 0
-430 38 0
-395 -406 -417 -429 -38 430 0
-431 146 195 232 269 309 356 393 430 0
431 -146 0
431 -195 0
431 -232 0
431 -269 0
431 -309 0
431 -356 0
431 -393 0
431 -430 0
-432 -431 0
432 431 0
-433 1 0
-433 2 0
-433 3 0
-433 4 0
-433 5 0
-433 6 0
-433 7 0
-433 8 0
-433 9 0
-433 10 0
-433 11 0
-433 12 0
-433 13 0
-433 14 0
-433 15 0
-433 16 0
-433 17 0
-433 18 0
-433 19 0
-433 20 0
-433 21 0
-433 22 0
-433 23 0
-433 24 0
-433 25 0
-433 26 0
-433 45 0
-433 53 0
-433 72 0
-433 88 0
-433 100 0
-433 432 0
-1 -2 -3 -4 -5 -6 -7 -8 -9 -10 -11 -12 -13 -14 -15 -16 -17 -18 -19 -20 -21 -22 -23 -24 -25 -26 -45 -53 -72 -88 -100 -432 433 0
433 0
-434 435 0
434 0
-436 437 0
-437 -438 0
-437 439 0
-438 439 0
-439 -440 0
-439 441 0
-440 441 0
-441 -442 0
-441 443 0
-442 443 0
436 438 440 442 0
-444 445 0
444 0
-446 447 0
-447 -448 0
-447 449 0
-448 449 0
-449 -450 0
-449 451 0
-450 451 0
-451 -452 0
-451 453 0
-452 453 0
446 448 450 452 0
-454 455 0
454 0
-456 457 0
456 0
-458 459 0
458 0
-460 461 0
460 0
-462 463 0
462 0
-464 465 0
464 0
-466 467 0
466 0
-468 469 0
468 0
-470 471 0
470 0
c 56 -> SNNT.QueryGeneration.ConstraintVariable(0.47*x2-1.0*x4<=0.51)
c 35 -> Intermediate
c 429 -> Intermediate
c 60 -> Intermediate
c 220 -> Intermediate
c 308 -> Intermediate
c 215 -> SNNT.QueryGeneration.ConstraintVariable(-200.0*x2<25.0)
c 73 -> SNNT.QueryGeneration.ConstraintVariable(-88000.0*x4<44000.0)
c 319 -> Intermediate
c 251 -> SNNT.QueryGeneration.ConstraintVariable(0.12*x20.2*x4<=-0.08)
c 115 -> Intermediate
c 112 -> SNNT.QueryGeneration.ConstraintVariable(-0.62*x21.0*x4<=-0.5)
c 185 -> Intermediate
c 348 -> Intermediate
c 420 -> Intermediate
c 404 -> Intermediate
c 365 -> Intermediate
c 417 -> Intermediate
c 333 -> SNNT.QueryGeneration.ConstraintVariable(-0.47*x2-1.0*x4<0.5)
c 364 -> Intermediate
c 207 -> Intermediate
c 422 -> SNNT.QueryGeneration.ConstraintVariable(1.0*x1-0.1*x4<0.05)
c 431 -> Intermediate
c 242 -> Intermediate
c 183 -> Intermediate
c 376 -> SNNT.QueryGeneration.ConstraintVariable(-200.0*x2<41.67)
c 224 -> SNNT.QueryGeneration.ConstraintVariable(-1.0*x1-0.06*x4<0.02)
c 465 -> Intermediate
c 177 -> Intermediate
c 430 -> Intermediate
c 12 -> SNNT.QueryGeneration.ConstraintVariable(1.0*x8<=100.0)
c 75 -> SNNT.QueryGeneration.ConstraintVariable(0.47*x2-1.0*x4<0.5)
c 23 -> SNNT.QueryGeneration.ConstraintVariable(-1.0*x10<=100.0)
c 111 -> Intermediate
c 41 -> Intermediate
c 82 -> Intermediate
c 130 -> Intermediate
c 125 -> Intermediate
c 77 -> Intermediate
c 172 -> Intermediate
c 71 -> Intermediate
c 339 -> Intermediate
c 66 -> Intermediate
c 280 -> Intermediate
c 59 -> SNNT.QueryGeneration.ConstraintVariable(88000.0*x4<=-44000.0)
c 208 -> Intermediate
c 336 -> Intermediate
c 26 -> SNNT.QueryGeneration.ConstraintVariable(-1.0*x13<=100.0)
c 211 -> Intermediate
c 358 -> Intermediate
c 366 -> Intermediate
c 127 -> Intermediate
c 116 -> Intermediate
c 100 -> Intermediate
c 414 -> Intermediate
c 468 -> SNNT.QueryGeneration.ApproxCase(12, 1)
c 79 -> Intermediate
c 230 -> Intermediate
c 279 -> Intermediate
c 195 -> Intermediate
c 374 -> Intermediate
c 278 -> Intermediate
c 450 -> SNNT.QueryGeneration.ApproxCase(4, 3)
c 135 -> Intermediate
c 138 -> SNNT.QueryGeneration.ConstraintVariable(-3.52e7*x1<-220000.0)
c 222 -> Intermediate
c 107 -> Intermediate
c 46 -> SNNT.QueryGeneration.ConstraintVariable(-88000.0*x4<=45000.0)
c 276 -> Intermediate
c 57 -> Intermediate
c 381 -> Intermediate
c 247 -> Intermediate
c 170 -> Intermediate
c 397 -> Intermediate
c 129 -> Intermediate
c 238 -> Intermediate
c 250 -> Intermediate
c 448 -> SNNT.QueryGeneration.ApproxCase(4, 2)
c 78 -> SNNT.QueryGeneration.ConstraintVariable(200.0*x2<=-2500.0)
c 438 -> SNNT.QueryGeneration.ApproxCase(2, 2)
c 72 -> Intermediate
c 258 -> SNNT.QueryGeneration.ConstraintVariable(-0.12*x2-0.2*x4<0.08)
c 436 -> SNNT.QueryGeneration.ApproxCase(2, 1)
c 184 -> Intermediate
c 252 -> SNNT.QueryGeneration.ConstraintVariable(200.0*x2<25.0)
c 1 -> SNNT.QueryGeneration.ConstraintVariable(-16000.0*x1<=8000.0)
c 137 -> Intermediate
c 22 -> SNNT.QueryGeneration.ConstraintVariable(-1.0*x9<=100.0)
c 154 -> SNNT.QueryGeneration.ConstraintVariable(-200.0*x2<=0.0)
c 435 -> Intermediate
c 427 -> Intermediate
c 454 -> SNNT.QueryGeneration.ApproxCase(5, 1)
c 391 -> Intermediate
c 237 -> Intermediate
c 206 -> Intermediate
c 288 -> Intermediate
c 270 -> Intermediate
c 354 -> Intermediate
c 299 -> SNNT.QueryGeneration.ConstraintVariable(0.09*x2-0.2*x4<0.09)
c 33 -> Intermediate
c 345 -> Intermediate
c 40 -> SNNT.QueryGeneration.IsMaxCase(Formula[1.0*x9-1.0*x11<0.0, 1.0*x5-1.0*x11<0.0, 1.0*x8-1.0*x11<0.0, 1.0*x6-1.0*x11<0.0, 1.0*x7-1.0*x11<0.0, -1.0*x111.0*x13<0.0, 1.0*x10-1.0*x11<0.0, -1.0*x111.0*x12<0.0])
c 400 -> Intermediate
c 113 -> Intermediate
c 231 -> Intermediate
c 432 -> Intermediate
c 245 -> Intermediate
c 254 -> Intermediate
c 165 -> Intermediate
c 309 -> Intermediate
c 416 -> Intermediate
c 5 -> SNNT.QueryGeneration.ConstraintVariable(-200.0*x2<=100.0)
c 55 -> Intermediate
c 114 -> Intermediate
c 325 -> Intermediate
c 136 -> Intermediate
c 45 -> Intermediate
c 145 -> Intermediate
c 418 -> Intermediate
c 444 -> SNNT.QueryGeneration.ApproxCase(3, 1)
c 449 -> Intermediate
c 275 -> Intermediate
c 337 -> SNNT.QueryGeneration.ConstraintVariable(0.09*x20.2*x4<=-0.09)
c 393 -> Intermediate
c 457 -> Intermediate
c 460 -> SNNT.QueryGeneration.ApproxCase(8, 1)
c 363 -> Intermediate
c 378 -> Intermediate
c 158 -> Intermediate
c 218 -> Intermediate
c 176 -> Intermediate
c 437 -> Intermediate
c 28 -> SNNT.QueryGeneration.IsMaxCase(Formula[1.0*x5-1.0*x9<0.0, 1.0*x8-1.0*x9<0.0, 1.0*x6-1.0*x9<0.0, 1.0*x7-1.0*x9<0.0, -1.0*x91.0*x13<0.0, -1.0*x91.0*x11<0.0, -1.0*x91.0*x10<0.0, -1.0*x91.0*x12<0.0])
c 148 -> SNNT.QueryGeneration.ConstraintVariable(200.0*x2<0.0)
c 92 -> Intermediate
c 36 -> SNNT.QueryGeneration.IsMaxCase(Formula[-1.0*x71.0*x9<0.0, 1.0*x5-1.0*x7<0.0, -1.0*x71.0*x8<0.0, 1.0*x6-1.0*x7<0.0, -1.0*x71.0*x13<0.0, -1.0*x71.0*x11<0.0, -1.0*x71.0*x10<0.0, -1.0*x71.0*x12<0.0])
c 469 -> Intermediate
c 451 -> Intermediate
c 162 -> Intermediate
c 84 -> Intermediate
c 7 -> SNNT.QueryGeneration.ConstraintVariable(-200.0*x3<=0.0)
c 25 -> SNNT.QueryGeneration.ConstraintVariable(-1.0*x12<=100.0)
c 203 -> Intermediate
c 292 -> Intermediate
c 353 -> Intermediate
c 232 -> Intermediate
c 93 -> SNNT.QueryGeneration.ConstraintVariable(-0.16*x1-1.0*x4<0.5)
c 18 -> SNNT.QueryGeneration.ConstraintVariable(-1.0*x5<=100.0)
c 240 -> Intermediate
c 147 -> SNNT.QueryGeneration.ConstraintVariable(0.62*x21.0*x4<-0.51)
c 157 -> Intermediate
c 16 -> SNNT.QueryGeneration.ConstraintVariable(1.0*x12<=100.0)
c 370 -> Intermediate
c 392 -> Intermediate
c 415 -> Intermediate
c 287 -> Intermediate
c 349 -> Intermediate
c 19 -> SNNT.QueryGeneration.ConstraintVariable(-1.0*x6<=100.0)
c 44 -> SNNT.QueryGeneration.IsMaxCase(Formula[1.0*x9-1.0*x12<0.0, 1.0*x5-1.0*x12<0.0, 1.0*x8-1.0*x12<0.0, 1.0*x6-1.0*x12<0.0, 1.0*x7-1.0*x12<0.0, -1.0*x121.0*x13<0.0, 1.0*x11-1.0*x12<0.0, 1.0*x10-1.0*x12<0.0])
c 266 -> Intermediate
c 31 -> Intermediate
c 217 -> Intermediate
c 146 -> Intermediate
c 368 -> Intermediate
c 74 -> Intermediate
c 61 -> SNNT.QueryGeneration.ConstraintVariable(-0.47*x21.0*x4<=-0.5)
c 29 -> Intermediate
c 412 -> SNNT.QueryGeneration.ConstraintVariable(0.09*x20.2*x4<=-0.08)
c 390 -> Intermediate
c 380 -> Intermediate
c 212 -> SNNT.QueryGeneration.ConstraintVariable(200.0*x2<=-25.0)
c 159 -> Intermediate
c 193 -> Intermediate
c 463 -> Intermediate
c 101 -> SNNT.QueryGeneration.ConstraintVariable(-0.62*x21.0*x4<-0.51)
c 360 -> Intermediate
c 223 -> Intermediate
c 399 -> Intermediate
c 285 -> Intermediate
c 17 -> SNNT.QueryGeneration.ConstraintVariable(1.0*x13<=100.0)
c 421 -> Intermediate
c 335 -> Intermediate
c 89 -> Intermediate
c 198 -> Intermediate
c 214 -> SNNT.QueryGeneration.ConstraintVariable(-0.12*x20.2*x4<=-0.08)
c 80 -> SNNT.QueryGeneration.ConstraintVariable(-0.08*x20.17*x4<=0.91)
c 331 -> Intermediate
c 462 -> SNNT.QueryGeneration.ApproxCase(9, 1)
c 274 -> Intermediate
c 246 -> Intermediate
c 143 -> Intermediate
c 48 -> SNNT.QueryGeneration.ConstraintVariable(-200.0*x2<0.0)
c 15 -> SNNT.QueryGeneration.ConstraintVariable(1.0*x11<=100.0)
c 330 -> Intermediate
c 284 -> Intermediate
c 134 -> Intermediate
c 402 -> Intermediate
c 413 -> SNNT.QueryGeneration.ConstraintVariable(200.0*x2<41.67)
c 110 -> Intermediate
c 30 -> SNNT.QueryGeneration.IsMaxCase(Formula[-1.0*x51.0*x9<0.0, -1.0*x51.0*x8<0.0, -1.0*x51.0*x6<0.0, -1.0*x51.0*x7<0.0, -1.0*x51.0*x13<0.0, -1.0*x51.0*x11<0.0, -1.0*x51.0*x10<0.0, -1.0*x51.0*x12<0.0])
c 419 -> SNNT.QueryGeneration.ConstraintVariable(-0.09*x2-0.2*x4<0.08)
c 6 -> SNNT.QueryGeneration.ConstraintVariable(200.0*x2<=100.0)
c 234 -> Intermediate
c 219 -> Intermediate
c 367 -> Intermediate
c 164 -> SNNT.QueryGeneration.ConstraintVariable(16000.0*x1<-100.0)
c 153 -> Intermediate
c 186 -> Intermediate
c 253 -> Intermediate
c 470 -> SNNT.QueryGeneration.ApproxCase(13, 1)
c 64 -> Intermediate
c 267 -> Intermediate
c 394 -> Intermediate
c 90 -> SNNT.QueryGeneration.ConstraintVariable(0.08*x2-0.17*x4<-0.91)
c 139 -> Intermediate
c 4 -> SNNT.QueryGeneration.ConstraintVariable(40.0*x4<=20.0)
c 13 -> SNNT.QueryGeneration.ConstraintVariable(1.0*x9<=100.0)
c 359 -> Intermediate
c 405 -> Intermediate
c 316 -> Intermediate
c 456 -> SNNT.QueryGeneration.ApproxCase(6, 1)
c 179 -> Intermediate
c 369 -> Intermediate
c 410 -> SNNT.QueryGeneration.ConstraintVariable(-200.0*x2<=-41.67)
c 356 -> Intermediate
c 300 -> Intermediate
c 43 -> Intermediate
c 11 -> SNNT.QueryGeneration.ConstraintVariable(1.0*x7<=100.0)
c 171 -> Intermediate
c 302 -> Intermediate
c 39 -> Intermediate
c 406 -> Intermediate
c 216 -> Intermediate
c 126 -> Intermediate
c 108 -> SNNT.QueryGeneration.ConstraintVariable(0.62*x2-1.0*x4<=0.51)
c 441 -> Intermediate
c 443 -> Intermediate
c 382 -> SNNT.QueryGeneration.ConstraintVariable(0.09*x2-0.2*x4<0.08)
c 156 -> SNNT.QueryGeneration.ConstraintVariable(-0.62*x2-1.0*x4<=0.51)
c 439 -> Intermediate
c 2 -> SNNT.QueryGeneration.ConstraintVariable(16000.0*x1<=8000.0)
c 10 -> SNNT.QueryGeneration.ConstraintVariable(1.0*x6<=100.0)
c 27 -> Intermediate
c 124 -> SNNT.QueryGeneration.ConstraintVariable(0.62*x2-1.0*x4<0.5)
c 261 -> SNNT.QueryGeneration.ConstraintVariable(1.0*x1-0.06*x4<0.02)
c 307 -> Intermediate
c 144 -> Intermediate
c 273 -> Intermediate
c 257 -> Intermediate
c 200 -> Intermediate
c 290 -> Intermediate
c 20 -> SNNT.QueryGeneration.ConstraintVariable(-1.0*x7<=100.0)
c 81 -> SNNT.QueryGeneration.ConstraintVariable(-200.0*x2<2500.0)
c 340 -> Intermediate
c 187 -> SNNT.QueryGeneration.ConstraintVariable(3.52e7*x1<-220000.0)
c 213 -> Intermediate
c 329 -> Intermediate
c 398 -> Intermediate
c 9 -> SNNT.QueryGeneration.ConstraintVariable(1.0*x5<=100.0)
c 344 -> Intermediate
c 346 -> SNNT.QueryGeneration.ConstraintVariable(-0.09*x2-0.2*x4<0.09)
c 294 -> Intermediate
c 109 -> Intermediate
c 409 -> Intermediate
c 161 -> Intermediate
c 445 -> Intermediate
c 453 -> Intermediate
c 466 -> SNNT.QueryGeneration.ApproxCase(11, 1)
c 249 -> SNNT.QueryGeneration.ConstraintVariable(-200.0*x2<=-25.0)
c 383 -> Intermediate
c 395 -> Intermediate
c 372 -> Intermediate
c 241 -> Intermediate
c 401 -> Intermediate
c 88 -> Intermediate
c 209 -> Intermediate
c 236 -> Intermediate
c 120 -> Intermediate
c 323 -> Intermediate
c 260 -> Intermediate
c 297 -> Intermediate
c 24 -> SNNT.QueryGeneration.ConstraintVariable(-1.0*x11<=100.0)
c 8 -> SNNT.QueryGeneration.ConstraintVariable(200.0*x3<=0.0)
c 37 -> Intermediate
c 83 -> Intermediate
c 201 -> Intermediate
c 99 -> Intermediate
c 121 -> Intermediate
c 311 -> Intermediate
c 281 -> Intermediate
c 14 -> SNNT.QueryGeneration.ConstraintVariable(1.0*x10<=100.0)
c 464 -> SNNT.QueryGeneration.ApproxCase(10, 1)
c 386 -> Intermediate
c 433 -> Intermediate
c 447 -> Intermediate
c 357 -> Intermediate
c 461 -> Intermediate
c 334 -> Intermediate
c 403 -> Intermediate
c 174 -> Intermediate
c 322 -> Intermediate
c 269 -> Intermediate
c 315 -> Intermediate
c 123 -> Intermediate
c 268 -> Intermediate
c 423 -> Intermediate
c 32 -> SNNT.QueryGeneration.IsMaxCase(Formula[-1.0*x81.0*x9<0.0, 1.0*x5-1.0*x8<0.0, 1.0*x6-1.0*x8<0.0, 1.0*x7-1.0*x8<0.0, -1.0*x81.0*x13<0.0, -1.0*x81.0*x11<0.0, -1.0*x81.0*x10<0.0, -1.0*x81.0*x12<0.0])
c 197 -> Intermediate
c 233 -> Intermediate
c 196 -> Intermediate
c 262 -> Intermediate
c 320 -> Intermediate
c 408 -> Intermediate
c 471 -> Intermediate
c 324 -> Intermediate
c 210 -> Intermediate
c 239 -> Intermediate
c 54 -> SNNT.QueryGeneration.ConstraintVariable(200.0*x2<=0.0)
c 63 -> Intermediate
c 91 -> Intermediate
c 62 -> Intermediate
c 205 -> Intermediate
c 244 -> Intermediate
c 122 -> Intermediate
c 58 -> Intermediate
c 199 -> Intermediate
c 434 -> SNNT.QueryGeneration.ApproxCase(1, 1)
c 173 -> SNNT.QueryGeneration.ConstraintVariable(-0.62*x2-1.0*x4<0.5)
c 256 -> Intermediate
c 188 -> Intermediate
c 277 -> Intermediate
c 361 -> Intermediate
c 98 -> Intermediate
c 355 -> Intermediate
c 235 -> Intermediate
c 204 -> Intermediate
c 385 -> SNNT.QueryGeneration.ConstraintVariable(-1.0*x1-0.1*x4<0.05)
c 377 -> Intermediate
c 411 -> Intermediate
c 310 -> SNNT.QueryGeneration.ConstraintVariable(0.47*x21.0*x4<-0.51)
c 321 -> SNNT.QueryGeneration.ConstraintVariable(0.47*x21.0*x4<=-0.5)
c 371 -> Intermediate
c 384 -> Intermediate
c 76 -> Intermediate
c 34 -> SNNT.QueryGeneration.IsMaxCase(Formula[-1.0*x61.0*x9<0.0, 1.0*x5-1.0*x6<0.0, -1.0*x61.0*x8<0.0, -1.0*x61.0*x7<0.0, -1.0*x61.0*x13<0.0, -1.0*x61.0*x11<0.0, -1.0*x61.0*x10<0.0, -1.0*x61.0*x12<0.0])
c 243 -> Intermediate
c 318 -> Intermediate
c 194 -> Intermediate
c 42 -> SNNT.QueryGeneration.IsMaxCase(Formula[1.0*x9-1.0*x10<0.0, 1.0*x5-1.0*x10<0.0, 1.0*x8-1.0*x10<0.0, 1.0*x6-1.0*x10<0.0, 1.0*x7-1.0*x10<0.0, -1.0*x101.0*x13<0.0, -1.0*x101.0*x11<0.0, -1.0*x101.0*x12<0.0])
c 202 -> Intermediate
c 248 -> Intermediate
c 169 -> Intermediate
c 301 -> Intermediate
c 317 -> SNNT.QueryGeneration.ConstraintVariable(-0.47*x2-1.0*x4<=0.51)
c 458 -> SNNT.QueryGeneration.ApproxCase(7, 1)
c 442 -> SNNT.QueryGeneration.ApproxCase(2, 4)
c 455 -> Intermediate
c 255 -> Intermediate
c 160 -> SNNT.QueryGeneration.ConstraintVariable(0.62*x21.0*x4<=-0.5)
c 289 -> Intermediate
c 49 -> Intermediate
c 291 -> SNNT.QueryGeneration.ConstraintVariable(-0.09*x20.2*x4<=-0.09)
c 106 -> Intermediate
c 452 -> SNNT.QueryGeneration.ApproxCase(4, 4)
c 94 -> Intermediate
c 225 -> Intermediate
c 428 -> Intermediate
c 102 -> Intermediate
c 128 -> Intermediate
c 259 -> Intermediate
c 70 -> Intermediate
c 347 -> Intermediate
c 332 -> Intermediate
c 21 -> SNNT.QueryGeneration.ConstraintVariable(-1.0*x8<=100.0)
c 229 -> Intermediate
c 38 -> SNNT.QueryGeneration.IsMaxCase(Formula[1.0*x9-1.0*x13<0.0, 1.0*x5-1.0*x13<0.0, 1.0*x8-1.0*x13<0.0, 1.0*x6-1.0*x13<0.0, 1.0*x7-1.0*x13<0.0, 1.0*x11-1.0*x13<0.0, 1.0*x10-1.0*x13<0.0, 1.0*x12-1.0*x13<0.0])
c 163 -> Intermediate
c 375 -> SNNT.QueryGeneration.ConstraintVariable(-0.09*x20.2*x4<=-0.08)
c 379 -> Intermediate
c 396 -> Intermediate
c 440 -> SNNT.QueryGeneration.ApproxCase(2, 3)
c 192 -> Intermediate
c 221 -> SNNT.QueryGeneration.ConstraintVariable(0.12*x2-0.2*x4<0.08)
c 373 -> SNNT.QueryGeneration.ConstraintVariable(200.0*x2<=-41.67)
c 53 -> Intermediate
c 362 -> Intermediate
c 47 -> SNNT.QueryGeneration.ConstraintVariable(-0.47*x21.0*x4<-0.51)
c 175 -> Intermediate
c 407 -> Intermediate
c 286 -> Intermediate
c 338 -> Intermediate
c 467 -> Intermediate
c 3 -> SNNT.QueryGeneration.ConstraintVariable(-40.0*x4<=14.0)
c 178 -> Intermediate
c 306 -> Intermediate
c 459 -> Intermediate
c 149 -> Intermediate
c 155 -> Intermediate
c 65 -> SNNT.QueryGeneration.ConstraintVariable(-16000.0*x1<-100.0)
c 446 -> SNNT.QueryGeneration.ApproxCase(4, 1)
c 293 -> Intermediate
c 298 -> Intermediate
c ----------------------------------------
c s pmc 39 053 410 025 472
c next_query           19.0k
c check_infeasib...  78.5k
c query_construc...  66.7k